experiments/sat_smt/run/sat-r/results/william.res
solved=true
solvingTime=73.8218841552734375
nActions=15