experiments/sat_smt/run/sat-r/results/william.out
Timesteps: 1
s UNSATISFIABLE
real 0.11
user 0.01
sys 0.00
Timesteps: 2
s UNSATISFIABLE
real 0.17
user 0.03
sys 0.00
Timesteps: 3
s UNSATISFIABLE
real 0.22
user 0.07
sys 0.00
Timesteps: 4
s UNSATISFIABLE
real 0.28
user 0.19
sys 0.00
Timesteps: 5
s UNSATISFIABLE
real 0.38
user 0.27
sys 0.01
Timesteps: 6
s UNSATISFIABLE
real 0.41
user 0.29
sys 0.01
Timesteps: 7
s UNSATISFIABLE
real 0.64
user 0.49
sys 0.01
Timesteps: 8
s UNSATISFIABLE
real 0.96
user 0.77
sys 0.01
Timesteps: 9
s UNSATISFIABLE
real 2.21
user 2.01
sys 0.01
Timesteps: 10
s UNSATISFIABLE
real 2.80
user 2.59
sys 0.02
Timesteps: 11
s UNSATISFIABLE
real 4.22
user 3.98
sys 0.03
Timesteps: 12
s UNSATISFIABLE
real 11.96
user 11.26
sys 0.05
Timesteps: 13
s UNSATISFIABLE
real 13.92
user 13.19
sys 0.03
Timesteps: 14
s UNSATISFIABLE
real 16.95
user 16.19
sys 0.05
Timesteps: 15
s SATISFIABLE
real 20.00
user 19.17
sys 0.05
